#definition

# set
set V := C1 C2 C3 C4 C5 ; 	# customer set
set F := F6 F7 F8 F6_1 F6_2 F7_1 F7_2 F8_1 F8_2 ;#recharging & battery swapping station
set D0 :=N0;
set Dσ :=Nσ;


# param
param CV := 50;    		# ECV fixed cost(Topic Given)
param C := 200;   		# ECV max load
param Q := 60.63; 		# ECV/BSV battery level
param h := 1;     		# ECV consumption

param CB := 60;    		# BSV fixed cost(Topic Given)
param Qplun := 5;       # BSV max load(battery)
param hplun := 1;     	# BSV consumption
param W := 121.26;		# BSV battery level

param Cde := 1;    		# ECV cost per unit distance
param Cdb := 1;    		# BSV cost per unit distance
param lamda := 3.00;	# battery swap time
param Cb :=8 ;  	    # battery swap cost(BSS/BSV)
param n :=5;	   		# number of customers
param g :=1.47 ;     	# the recharging rate of ECV 



# customer demend
param m :=
N0 0
C1 1
C2 16
C3 18
C4 3
C5 20
F6 0
F7 0
F8 0
F6_1 0
F6_2 0
F7_1 0
F7_2 0
F8_1 0
F8_2 0
Nσ 0;

param e :=
N0 0
C1 150
C2 29
C3 59
C4 86
C5 29
F6 0
F7 0
F8 0
F6_1 0
F6_2 0
F7_1 0
F7_2 0
F8_1 0
F8_2 0
Nσ 0;

param l :=
N0 230
C1 180
C2 59
C3 89
C4 116
C5 59
F6 230
F7 230
F8 230
F6_1 230
F6_2 230
F7_1 230
F7_2 230
F8_1 230
F8_2 230
Nσ 230;

param s :=
N0 0
C1 10
C2 10
C3 10
C4 10
C5 10
F6 0
F7 0
F8 0
F6_1 0
F6_2 0
F7_1 0
F7_2 0
F8_1 0
F8_2 0
Nσ 0;

param d : N0 C1 C2 C3 C4 C5 F6 F7 F8 F6_1 F6_2 F7_1 F7_2 F8_1 F8_2 Nσ :=
N0 0.0000 25.6125 6.3246 27.7849 31.0644 14.8661 0.0000 29.0689 19.1050 0.0000 0.0000 29.0689 29.0689 19.1050 19.1050 0.0000
C1 25.6125 0.0000 31.6228 34.9285 56.6127 11.1803 25.6125 52.2015 6.7082 25.6125 25.6125 52.2015 52.2015 6.7082 6.7082 25.6125
C2 6.3246 31.6228 0.0000 27.2029 25.0000 20.6155 6.3246 23.0000 25.0000 6.3246 6.3246 23.0000 23.0000 25.0000 25.0000 6.3246
C3 27.7849 34.9285 27.2029 0.0000 42.7200 27.2947 27.7849 30.0167 30.0832 27.7849 27.7849 30.0167 30.0167 30.0832 30.0832 27.7849
C4 31.0644 56.6127 25.0000 42.7200 0.0000 45.6070 31.0644 15.2971 50.0000 31.0644 31.0644 15.2971 15.2971 50.0000 50.0000 31.0644
C5 14.8661 11.1803 20.6155 27.2947 45.6070 0.0000 14.8661 41.1096 4.4721 14.8661 14.8661 41.1096 41.1096 4.4721 4.4721 14.8661
F6 0.0000 25.6125 6.3246 27.7849 31.0644 14.8661 0.0000 29.0689 19.1050 0.0000 0.0000 29.0689 29.0689 19.1050 19.1050 0.0000
F7 29.0689 52.2015 23.0000 30.0167 15.2971 41.1096 29.0689 0.0000 45.5412 29.0689 29.0689 0.0000 0.0000 45.5412 45.5412 29.0689
F8 19.1050 6.7082 25.0000 30.0832 50.0000 4.4721 19.1050 45.5412 0.0000 19.1050 19.1050 45.5412 45.5412 0.0000 0.0000 19.1050
F6_1 0.0000 25.6125 6.3246 27.7849 31.0644 14.8661 0.0000 29.0689 19.1050 0.0000 0.0000 29.0689 29.0689 19.1050 19.1050 0.0000
F6_2 0.0000 25.6125 6.3246 27.7849 31.0644 14.8661 0.0000 29.0689 19.1050 0.0000 0.0000 29.0689 29.0689 19.1050 19.1050 0.0000
F7_1 29.0689 52.2015 23.0000 30.0167 15.2971 41.1096 29.0689 0.0000 45.5412 29.0689 29.0689 0.0000 0.0000 45.5412 45.5412 29.0689
F7_2 29.0689 52.2015 23.0000 30.0167 15.2971 41.1096 29.0689 0.0000 45.5412 29.0689 29.0689 0.0000 0.0000 45.5412 45.5412 29.0689
F8_1 19.1050 6.7082 25.0000 30.0832 50.0000 4.4721 19.1050 45.5412 0.0000 19.1050 19.1050 45.5412 45.5412 0.0000 0.0000 19.1050
F8_2 19.1050 6.7082 25.0000 30.0832 50.0000 4.4721 19.1050 45.5412 0.0000 19.1050 19.1050 45.5412 45.5412 0.0000 0.0000 19.1050
Nσ 0.0000 25.6125 6.3246 27.7849 31.0644 14.8661 0.0000 29.0689 19.1050 0.0000 0.0000 29.0689 29.0689 19.1050 19.1050 0.0000
;

param t : N0 C1 C2 C3 C4 C5 F6 F7 F8 F6_1 F6_2 F7_1 F7_2 F8_1 F8_2 Nσ :=
N0 0.0000 25.6125 6.3246 27.7849 31.0644 14.8661 0.0000 29.0689 19.1050 0.0000 0.0000 29.0689 29.0689 19.1050 19.1050 0.0000
C1 25.6125 0.0000 31.6228 34.9285 56.6127 11.1803 25.6125 52.2015 6.7082 25.6125 25.6125 52.2015 52.2015 6.7082 6.7082 25.6125
C2 6.3246 31.6228 0.0000 27.2029 25.0000 20.6155 6.3246 23.0000 25.0000 6.3246 6.3246 23.0000 23.0000 25.0000 25.0000 6.3246
C3 27.7849 34.9285 27.2029 0.0000 42.7200 27.2947 27.7849 30.0167 30.0832 27.7849 27.7849 30.0167 30.0167 30.0832 30.0832 27.7849
C4 31.0644 56.6127 25.0000 42.7200 0.0000 45.6070 31.0644 15.2971 50.0000 31.0644 31.0644 15.2971 15.2971 50.0000 50.0000 31.0644
C5 14.8661 11.1803 20.6155 27.2947 45.6070 0.0000 14.8661 41.1096 4.4721 14.8661 14.8661 41.1096 41.1096 4.4721 4.4721 14.8661
F6 0.0000 25.6125 6.3246 27.7849 31.0644 14.8661 0.0000 29.0689 19.1050 0.0000 0.0000 29.0689 29.0689 19.1050 19.1050 0.0000
F7 29.0689 52.2015 23.0000 30.0167 15.2971 41.1096 29.0689 0.0000 45.5412 29.0689 29.0689 0.0000 0.0000 45.5412 45.5412 29.0689
F8 19.1050 6.7082 25.0000 30.0832 50.0000 4.4721 19.1050 45.5412 0.0000 19.1050 19.1050 45.5412 45.5412 0.0000 0.0000 19.1050
F6_1 0.0000 25.6125 6.3246 27.7849 31.0644 14.8661 0.0000 29.0689 19.1050 0.0000 0.0000 29.0689 29.0689 19.1050 19.1050 0.0000
F6_2 0.0000 25.6125 6.3246 27.7849 31.0644 14.8661 0.0000 29.0689 19.1050 0.0000 0.0000 29.0689 29.0689 19.1050 19.1050 0.0000
F7_1 29.0689 52.2015 23.0000 30.0167 15.2971 41.1096 29.0689 0.0000 45.5412 29.0689 29.0689 0.0000 0.0000 45.5412 45.5412 29.0689
F7_2 29.0689 52.2015 23.0000 30.0167 15.2971 41.1096 29.0689 0.0000 45.5412 29.0689 29.0689 0.0000 0.0000 45.5412 45.5412 29.0689
F8_1 19.1050 6.7082 25.0000 30.0832 50.0000 4.4721 19.1050 45.5412 0.0000 19.1050 19.1050 45.5412 45.5412 0.0000 0.0000 19.1050
F8_2 19.1050 6.7082 25.0000 30.0832 50.0000 4.4721 19.1050 45.5412 0.0000 19.1050 19.1050 45.5412 45.5412 0.0000 0.0000 19.1050
Nσ 0.0000 25.6125 6.3246 27.7849 31.0644 14.8661 0.0000 29.0689 19.1050 0.0000 0.0000 29.0689 29.0689 19.1050 19.1050 0.0000
;